\* berth *\
Minimize
OBJ: 404 mid_for_y_0 + 479 mid_for_y_1 + 440 mid_for_y_10 + 496 mid_for_y_11
 + 524 mid_for_y_12 + 423 mid_for_y_13 + 418 mid_for_y_14 + 432 mid_for_y_15
 + 428 mid_for_y_16 + 493 mid_for_y_17 + 516 mid_for_y_18 + 476 mid_for_y_19
 + 560 mid_for_y_2 + 479 mid_for_y_20 + 489 mid_for_y_21 + 482 mid_for_y_22
 + 476 mid_for_y_23 + 556 mid_for_y_24 + 402 mid_for_y_25 + 502 mid_for_y_26
 + 554 mid_for_y_27 + 538 mid_for_y_28 + 598 mid_for_y_29 + 508 mid_for_y_3
 + 504 mid_for_y_30 + 552 mid_for_y_31 + 430 mid_for_y_32 + 592 mid_for_y_33
 + 571 mid_for_y_34 + 597 mid_for_y_35 + 406 mid_for_y_36 + 468 mid_for_y_37
 + 559 mid_for_y_38 + 421 mid_for_y_39 + 420 mid_for_y_4 + 502 mid_for_y_40
 + 434 mid_for_y_41 + 495 mid_for_y_42 + 522 mid_for_y_43 + 488 mid_for_y_44
 + 442 mid_for_y_45 + 422 mid_for_y_46 + 477 mid_for_y_47 + 445 mid_for_y_48
 + 502 mid_for_y_49 + 517 mid_for_y_5 + 412 mid_for_y_50 + 583 mid_for_y_51
 + 409 mid_for_y_52 + 400 mid_for_y_53 + 417 mid_for_y_54 + 420 mid_for_y_55
 + 554 mid_for_y_56 + 545 mid_for_y_57 + 522 mid_for_y_58 + 485 mid_for_y_59
 + 485 mid_for_y_6 + 462 mid_for_y_7 + 432 mid_for_y_8 + 483 mid_for_y_9
 + 535 mid_x_0 + 503 mid_x_1 + 530 mid_x_10 + 461 mid_x_11 + 512 mid_x_12
 + 473 mid_x_13 + 535 mid_x_14 + 473 mid_x_15 + 535 mid_x_16 + 410 mid_x_17
 + 552 mid_x_18 + 482 mid_x_19 + 525 mid_x_2 + 572 mid_x_20 + 437 mid_x_21
 + 559 mid_x_22 + 480 mid_x_23 + 465 mid_x_24 + 454 mid_x_25 + 507 mid_x_26
 + 507 mid_x_27 + 537 mid_x_28 + 538 mid_x_29 + 521 mid_x_3 + 598 mid_x_30
 + 469 mid_x_31 + 422 mid_x_32 + 479 mid_x_33 + 407 mid_x_34 + 597 mid_x_35
 + 512 mid_x_36 + 435 mid_x_37 + 502 mid_x_38 + 505 mid_x_39 + 537 mid_x_4
 + 488 mid_x_40 + 467 mid_x_41 + 563 mid_x_42 + 462 mid_x_43 + 409 mid_x_44
 + 489 mid_x_45 + 442 mid_x_46 + 410 mid_x_47 + 401 mid_x_48 + 587 mid_x_49
 + 427 mid_x_5 + 579 mid_x_50 + 474 mid_x_51 + 411 mid_x_52 + 466 mid_x_53
 + 428 mid_x_54 + 537 mid_x_55 + 469 mid_x_56 + 527 mid_x_57 + 499 mid_x_58
 + 525 mid_x_59 + 507 mid_x_6 + 431 mid_x_7 + 588 mid_x_8 + 578 mid_x_9
Subject To
_C1: mid_x_0 >= 0
_C10: - mid_x_1 - x_1 <= -811
_C100: mid_for_y_12 >= 0
_C101: mid_for_y_12 - y_12 >= -171
_C102: x_12 <= 1113
_C103: y_12 >= 171
_C104: x_12 >= 0
_C105: mid_x_13 >= 0
_C106: - mid_x_13 - x_13 <= -44
_C107: mid_x_13 - x_13 >= -44
_C108: mid_for_y_13 >= 0
_C109: mid_for_y_13 - y_13 >= -83
_C11: mid_x_1 - x_1 >= -811
_C110: x_13 <= 1100
_C111: y_13 >= 83
_C112: x_13 >= 0
_C113: mid_x_14 >= 0
_C114: - mid_x_14 - x_14 <= -299
_C115: mid_x_14 - x_14 >= -299
_C116: mid_for_y_14 >= 0
_C117: mid_for_y_14 - y_14 >= -62
_C118: x_14 <= 1100
_C119: y_14 >= 62
_C12: mid_for_y_1 >= 0
_C120: x_14 >= 0
_C121: mid_x_15 >= 0
_C122: - mid_x_15 - x_15 <= -746
_C123: mid_x_15 - x_15 >= -746
_C124: mid_for_y_15 >= 0
_C125: mid_for_y_15 - y_15 >= -173
_C126: x_15 <= 1104
_C127: y_15 >= 173
_C128: x_15 >= 0
_C129: mid_x_16 >= 0
_C13: mid_for_y_1 - y_1 >= -55
_C130: - mid_x_16 - x_16 <= -1174
_C131: mid_x_16 - x_16 >= -1174
_C132: mid_for_y_16 >= 0
_C133: mid_for_y_16 - y_16 >= -493
_C134: x_16 <= 1118
_C135: y_16 >= 493
_C136: x_16 >= 0
_C137: mid_x_17 >= 0
_C138: - mid_x_17 - x_17 <= -63
_C139: mid_x_17 - x_17 >= -63
_C14: x_1 <= 1106
_C140: mid_for_y_17 >= 0
_C141: mid_for_y_17 - y_17 >= -497
_C142: x_17 <= 1106
_C143: y_17 >= 497
_C144: x_17 >= 0
_C145: mid_x_18 >= 0
_C146: - mid_x_18 - x_18 <= -239
_C147: mid_x_18 - x_18 >= -239
_C148: mid_for_y_18 >= 0
_C149: mid_for_y_18 - y_18 >= -335
_C15: y_1 >= 55
_C150: x_18 <= 1112
_C151: y_18 >= 335
_C152: x_18 >= 0
_C153: mid_x_19 >= 0
_C154: - mid_x_19 - x_19 <= -175
_C155: mid_x_19 - x_19 >= -175
_C156: mid_for_y_19 >= 0
_C157: mid_for_y_19 - y_19 >= -378
_C158: x_19 <= 1105
_C159: y_19 >= 378
_C16: x_1 >= 0
_C160: x_19 >= 0
_C161: mid_x_20 >= 0
_C162: - mid_x_20 - x_20 <= -987
_C163: mid_x_20 - x_20 >= -987
_C164: mid_for_y_20 >= 0
_C165: mid_for_y_20 - y_20 >= -227
_C166: x_20 <= 1112
_C167: y_20 >= 227
_C168: x_20 >= 0
_C169: mid_x_21 >= 0
_C17: mid_x_2 >= 0
_C170: - mid_x_21 - x_21 <= -56
_C171: mid_x_21 - x_21 >= -56
_C172: mid_for_y_21 >= 0
_C173: mid_for_y_21 - y_21 >= -174
_C174: x_21 <= 1109
_C175: y_21 >= 174
_C176: x_21 >= 0
_C177: mid_x_22 >= 0
_C178: - mid_x_22 - x_22 <= -806
_C179: mid_x_22 - x_22 >= -806
_C18: - mid_x_2 - x_2 <= -775
_C180: mid_for_y_22 >= 0
_C181: mid_for_y_22 - y_22 >= -428
_C182: x_22 <= 1116
_C183: y_22 >= 428
_C184: x_22 >= 0
_C185: mid_x_23 >= 0
_C186: - mid_x_23 - x_23 <= -949
_C187: mid_x_23 - x_23 >= -949
_C188: mid_for_y_23 >= 0
_C189: mid_for_y_23 - y_23 >= -158
_C19: mid_x_2 - x_2 >= -775
_C190: x_23 <= 1110
_C191: y_23 >= 158
_C192: x_23 >= 0
_C193: mid_x_24 >= 0
_C194: - mid_x_24 - x_24 <= -268
_C195: mid_x_24 - x_24 >= -268
_C196: mid_for_y_24 >= 0
_C197: mid_for_y_24 - y_24 >= -327
_C198: x_24 <= 1115
_C199: y_24 >= 327
_C2: - mid_x_0 - x_0 <= -657
_C20: mid_for_y_2 >= 0
_C200: x_24 >= 0
_C201: mid_x_25 >= 0
_C202: - mid_x_25 - x_25 <= -757
_C203: mid_x_25 - x_25 >= -757
_C204: mid_for_y_25 >= 0
_C205: mid_for_y_25 - y_25 >= -41
_C206: x_25 <= 1115
_C207: y_25 >= 41
_C208: x_25 >= 0
_C209: mid_x_26 >= 0
_C21: mid_for_y_2 - y_2 >= -5
_C210: - mid_x_26 - x_26 <= -763
_C211: mid_x_26 - x_26 >= -763
_C212: mid_for_y_26 >= 0
_C213: mid_for_y_26 - y_26 >= -445
_C214: x_26 <= 1111
_C215: y_26 >= 445
_C216: x_26 >= 0
_C217: mid_x_27 >= 0
_C218: - mid_x_27 - x_27 <= -1195
_C219: mid_x_27 - x_27 >= -1195
_C22: x_2 <= 1108
_C220: mid_for_y_27 >= 0
_C221: mid_for_y_27 - y_27 >= -127
_C222: x_27 <= 1119
_C223: y_27 >= 127
_C224: x_27 >= 0
_C225: mid_x_28 >= 0
_C226: - mid_x_28 - x_28 <= -384
_C227: mid_x_28 - x_28 >= -384
_C228: mid_for_y_28 >= 0
_C229: mid_for_y_28 - y_28 >= -193
_C23: y_2 >= 5
_C230: x_28 <= 1105
_C231: y_28 >= 193
_C232: x_28 >= 0
_C233: mid_x_29 >= 0
_C234: - mid_x_29 - x_29 <= -307
_C235: mid_x_29 - x_29 >= -307
_C236: mid_for_y_29 >= 0
_C237: mid_for_y_29 - y_29 >= -467
_C238: x_29 <= 1107
_C239: y_29 >= 467
_C24: x_2 >= 0
_C240: x_29 >= 0
_C241: mid_x_30 >= 0
_C242: - mid_x_30 - x_30 <= -300
_C243: mid_x_30 - x_30 >= -300
_C244: mid_for_y_30 >= 0
_C245: mid_for_y_30 - y_30 >= -483
_C246: x_30 <= 1103
_C247: y_30 >= 483
_C248: x_30 >= 0
_C249: mid_x_31 >= 0
_C25: mid_x_3 >= 0
_C250: - mid_x_31 - x_31 <= -528
_C251: mid_x_31 - x_31 >= -528
_C252: mid_for_y_31 >= 0
_C253: mid_for_y_31 - y_31 >= -376
_C254: x_31 <= 1102
_C255: y_31 >= 376
_C256: x_31 >= 0
_C257: mid_x_32 >= 0
_C258: - mid_x_32 - x_32 <= -156
_C259: mid_x_32 - x_32 >= -156
_C26: - mid_x_3 - x_3 <= -984
_C260: mid_for_y_32 >= 0
_C261: mid_for_y_32 - y_32 >= -414
_C262: x_32 <= 1113
_C263: y_32 >= 414
_C264: x_32 >= 0
_C265: mid_x_33 >= 0
_C266: - mid_x_33 - x_33 <= -648
_C267: mid_x_33 - x_33 >= -648
_C268: mid_for_y_33 >= 0
_C269: mid_for_y_33 - y_33 >= -339
_C27: mid_x_3 - x_3 >= -984
_C270: x_33 <= 1100
_C271: y_33 >= 339
_C272: x_33 >= 0
_C273: mid_x_34 >= 0
_C274: - mid_x_34 - x_34 <= -640
_C275: mid_x_34 - x_34 >= -640
_C276: mid_for_y_34 >= 0
_C277: mid_for_y_34 - y_34 >= -479
_C278: x_34 <= 1104
_C279: y_34 >= 479
_C28: mid_for_y_3 >= 0
_C280: x_34 >= 0
_C281: mid_x_35 >= 0
_C282: - mid_x_35 - x_35 <= -237
_C283: mid_x_35 - x_35 >= -237
_C284: mid_for_y_35 >= 0
_C285: mid_for_y_35 - y_35 >= -109
_C286: x_35 <= 1116
_C287: y_35 >= 109
_C288: x_35 >= 0
_C289: mid_x_36 >= 0
_C29: mid_for_y_3 - y_3 >= -358
_C290: - mid_x_36 - x_36 <= -913
_C291: mid_x_36 - x_36 >= -913
_C292: mid_for_y_36 >= 0
_C293: mid_for_y_36 - y_36 >= -155
_C294: x_36 <= 1112
_C295: y_36 >= 155
_C296: x_36 >= 0
_C297: mid_x_37 >= 0
_C298: - mid_x_37 - x_37 <= -1011
_C299: mid_x_37 - x_37 >= -1011
_C3: mid_x_0 - x_0 >= -657
_C30: x_3 <= 1111
_C300: mid_for_y_37 >= 0
_C301: mid_for_y_37 - y_37 >= -335
_C302: x_37 <= 1111
_C303: y_37 >= 335
_C304: x_37 >= 0
_C305: mid_x_38 >= 0
_C306: - mid_x_38 - x_38 <= -126
_C307: mid_x_38 - x_38 >= -126
_C308: mid_for_y_38 >= 0
_C309: mid_for_y_38 - y_38 >= -203
_C31: y_3 >= 358
_C310: x_38 <= 1100
_C311: y_38 >= 203
_C312: x_38 >= 0
_C313: mid_x_39 >= 0
_C314: - mid_x_39 - x_39 <= -455
_C315: mid_x_39 - x_39 >= -455
_C316: mid_for_y_39 >= 0
_C317: mid_for_y_39 - y_39 >= -220
_C318: x_39 <= 1101
_C319: y_39 >= 220
_C32: x_3 >= 0
_C320: x_39 >= 0
_C321: mid_x_40 >= 0
_C322: - mid_x_40 - x_40 <= -1041
_C323: mid_x_40 - x_40 >= -1041
_C324: mid_for_y_40 >= 0
_C325: mid_for_y_40 - y_40 >= -470
_C326: x_40 <= 1113
_C327: y_40 >= 470
_C328: x_40 >= 0
_C329: mid_x_41 >= 0
_C33: mid_x_4 >= 0
_C330: - mid_x_41 - x_41 <= -986
_C331: mid_x_41 - x_41 >= -986
_C332: mid_for_y_41 >= 0
_C333: mid_for_y_41 - y_41 >= -85
_C334: x_41 <= 1120
_C335: y_41 >= 85
_C336: x_41 >= 0
_C337: mid_x_42 >= 0
_C338: - mid_x_42 - x_42 <= -761
_C339: mid_x_42 - x_42 >= -761
_C34: - mid_x_4 - x_4 <= -105
_C340: mid_for_y_42 >= 0
_C341: mid_for_y_42 - y_42 >= -179
_C342: x_42 <= 1114
_C343: y_42 >= 179
_C344: x_42 >= 0
_C345: mid_x_43 >= 0
_C346: - mid_x_43 - x_43 <= -245
_C347: mid_x_43 - x_43 >= -245
_C348: mid_for_y_43 >= 0
_C349: mid_for_y_43 - y_43 >= -5
_C35: mid_x_4 - x_4 >= -105
_C350: x_43 <= 1107
_C351: y_43 >= 5
_C352: x_43 >= 0
_C353: mid_x_44 >= 0
_C354: - mid_x_44 - x_44 <= -151
_C355: mid_x_44 - x_44 >= -151
_C356: mid_for_y_44 >= 0
_C357: mid_for_y_44 - y_44 >= -136
_C358: x_44 <= 1101
_C359: y_44 >= 136
_C36: mid_for_y_4 >= 0
_C360: x_44 >= 0
_C361: mid_x_45 >= 0
_C362: - mid_x_45 - x_45 <= -1022
_C363: mid_x_45 - x_45 >= -1022
_C364: mid_for_y_45 >= 0
_C365: mid_for_y_45 - y_45 >= -208
_C366: x_45 <= 1111
_C367: y_45 >= 208
_C368: x_45 >= 0
_C369: mid_x_46 >= 0
_C37: mid_for_y_4 - y_4 >= -75
_C370: - mid_x_46 - x_46 <= -475
_C371: mid_x_46 - x_46 >= -475
_C372: mid_for_y_46 >= 0
_C373: mid_for_y_46 - y_46 >= -234
_C374: x_46 <= 1109
_C375: y_46 >= 234
_C376: x_46 >= 0
_C377: mid_x_47 >= 0
_C378: - mid_x_47 - x_47 <= -468
_C379: mid_x_47 - x_47 >= -468
_C38: x_4 <= 1104
_C380: mid_for_y_47 >= 0
_C381: mid_for_y_47 - y_47 >= -395
_C382: x_47 <= 1112
_C383: y_47 >= 395
_C384: x_47 >= 0
_C385: mid_x_48 >= 0
_C386: - mid_x_48 - x_48 <= -1000
_C387: mid_x_48 - x_48 >= -1000
_C388: mid_for_y_48 >= 0
_C389: mid_for_y_48 - y_48 >= -21
_C39: y_4 >= 75
_C390: x_48 <= 1105
_C391: y_48 >= 21
_C392: x_48 >= 0
_C393: mid_x_49 >= 0
_C394: - mid_x_49 - x_49 <= -300
_C395: mid_x_49 - x_49 >= -300
_C396: mid_for_y_49 >= 0
_C397: mid_for_y_49 - y_49 >= -121
_C398: x_49 <= 1112
_C399: y_49 >= 121
_C4: mid_for_y_0 >= 0
_C40: x_4 >= 0
_C400: x_49 >= 0
_C401: mid_x_50 >= 0
_C402: - mid_x_50 - x_50 <= -136
_C403: mid_x_50 - x_50 >= -136
_C404: mid_for_y_50 >= 0
_C405: mid_for_y_50 - y_50 >= -483
_C406: x_50 <= 1106
_C407: y_50 >= 483
_C408: x_50 >= 0
_C409: mid_x_51 >= 0
_C41: mid_x_5 >= 0
_C410: - mid_x_51 - x_51 <= -32
_C411: mid_x_51 - x_51 >= -32
_C412: mid_for_y_51 >= 0
_C413: mid_for_y_51 - y_51 >= -477
_C414: x_51 <= 1117
_C415: y_51 >= 477
_C416: x_51 >= 0
_C417: mid_x_52 >= 0
_C418: - mid_x_52 - x_52 <= -661
_C419: mid_x_52 - x_52 >= -661
_C42: - mid_x_5 - x_5 <= -1094
_C420: mid_for_y_52 >= 0
_C421: mid_for_y_52 - y_52 >= -281
_C422: x_52 <= 1113
_C423: y_52 >= 281
_C424: x_52 >= 0
_C425: mid_x_53 >= 0
_C426: - mid_x_53 - x_53 <= -85
_C427: mid_x_53 - x_53 >= -85
_C428: mid_for_y_53 >= 0
_C429: mid_for_y_53 - y_53 >= -303
_C43: mid_x_5 - x_5 >= -1094
_C430: x_53 <= 1101
_C431: y_53 >= 303
_C432: x_53 >= 0
_C433: mid_x_54 >= 0
_C434: - mid_x_54 - x_54 <= -27
_C435: mid_x_54 - x_54 >= -27
_C436: mid_for_y_54 >= 0
_C437: mid_for_y_54 - y_54 >= -376
_C438: x_54 <= 1119
_C439: y_54 >= 376
_C44: mid_for_y_5 >= 0
_C440: x_54 >= 0
_C441: mid_x_55 >= 0
_C442: - mid_x_55 - x_55 <= -972
_C443: mid_x_55 - x_55 >= -972
_C444: mid_for_y_55 >= 0
_C445: mid_for_y_55 - y_55 >= -372
_C446: x_55 <= 1111
_C447: y_55 >= 372
_C448: x_55 >= 0
_C449: mid_x_56 >= 0
_C45: mid_for_y_5 - y_5 >= -31
_C450: - mid_x_56 - x_56 <= -855
_C451: mid_x_56 - x_56 >= -855
_C452: mid_for_y_56 >= 0
_C453: mid_for_y_56 - y_56 >= -35
_C454: x_56 <= 1105
_C455: y_56 >= 35
_C456: x_56 >= 0
_C457: mid_x_57 >= 0
_C458: - mid_x_57 - x_57 <= -505
_C459: mid_x_57 - x_57 >= -505
_C46: x_5 <= 1105
_C460: mid_for_y_57 >= 0
_C461: mid_for_y_57 - y_57 >= -135
_C462: x_57 <= 1110
_C463: y_57 >= 135
_C464: x_57 >= 0
_C465: mid_x_58 >= 0
_C466: - mid_x_58 - x_58 <= -112
_C467: mid_x_58 - x_58 >= -112
_C468: mid_for_y_58 >= 0
_C469: mid_for_y_58 - y_58 >= -404
_C47: y_5 >= 31
_C470: x_58 <= 1120
_C471: y_58 >= 404
_C472: x_58 >= 0
_C473: mid_x_59 >= 0
_C474: - mid_x_59 - x_59 <= -628
_C475: mid_x_59 - x_59 >= -628
_C476: mid_for_y_59 >= 0
_C477: mid_for_y_59 - y_59 >= -110
_C478: x_59 <= 1102
_C479: y_59 >= 110
_C48: x_5 >= 0
_C480: x_59 >= 0
_C481: - x_3 + x_6 + 100000000 z_x_(6,_3) <= 99999912
_C482: x_3 - x_6 + 100000000 z_x_(3,_6) <= 99999911
_C483: - y_3 + y_6 + 100000000 z_y_(6,_3) <= 99999965
_C484: y_3 - y_6 + 100000000 z_y_(3,_6) <= 99999975
_C485: z_x_(3,_6) + z_x_(6,_3) + z_y_(3,_6) + z_y_(6,_3) >= 1
_C486: x_13 - x_4 + 100000000 z_x_(13,_4) <= 99999900
_C487: - x_13 + x_4 + 100000000 z_x_(4,_13) <= 99999904
_C488: y_13 - y_4 + 100000000 z_y_(13,_4) <= 99999966
_C489: - y_13 + y_4 + 100000000 z_y_(4,_13) <= 99999968
_C49: mid_x_6 >= 0
_C490: z_x_(13,_4) + z_x_(4,_13) + z_y_(13,_4) + z_y_(4,_13) >= 1
_C491: - x_12 + x_15 + 100000000 z_x_(15,_12) <= 99999904
_C492: x_12 - x_15 + 100000000 z_x_(12,_15) <= 99999913
_C493: - y_12 + y_15 + 100000000 z_y_(15,_12) <= 99999968
_C494: y_12 - y_15 + 100000000 z_y_(12,_15) <= 99999972
_C495: z_x_(12,_15) + z_x_(15,_12) + z_y_(12,_15) + z_y_(15,_12) >= 1
_C496: - x_18 + x_24 + 100000000 z_x_(24,_18) <= 99999915
_C497: x_18 - x_24 + 100000000 z_x_(18,_24) <= 99999912
_C498: - y_18 + y_24 + 100000000 z_y_(24,_18) <= 99999972
_C499: y_18 - y_24 + 100000000 z_y_(18,_24) <= 99999968
_C5: mid_for_y_0 - y_0 >= -425
_C50: - mid_x_6 - x_6 <= -964
_C500: z_x_(18,_24) + z_x_(24,_18) + z_y_(18,_24) + z_y_(24,_18) >= 1
_C501: - x_1 + x_25 + 100000000 z_x_(25,_1) <= 99999915
_C502: x_1 - x_25 + 100000000 z_x_(1,_25) <= 99999906
_C503: - y_1 + y_25 + 100000000 z_y_(25,_1) <= 99999967
_C504: y_1 - y_25 + 100000000 z_y_(1,_25) <= 99999969
_C505: z_x_(1,_25) + z_x_(25,_1) + z_y_(1,_25) + z_y_(25,_1) >= 1
_C506: - x_22 + x_26 + 100000000 z_x_(26,_22) <= 99999911
_C507: x_22 - x_26 + 100000000 z_x_(22,_26) <= 99999916
_C508: - y_22 + y_26 + 100000000 z_y_(26,_22) <= 99999967
_C509: y_22 - y_26 + 100000000 z_y_(22,_26) <= 99999965
_C51: mid_x_6 - x_6 >= -964
_C510: z_x_(22,_26) + z_x_(26,_22) + z_y_(22,_26) + z_y_(26,_22) >= 1
_C511: - x_29 + x_30 + 100000000 z_x_(30,_29) <= 99999903
_C512: x_29 - x_30 + 100000000 z_x_(29,_30) <= 99999907
_C513: - y_29 + y_30 + 100000000 z_y_(30,_29) <= 99999972
_C514: y_29 - y_30 + 100000000 z_y_(29,_30) <= 99999965
_C515: z_x_(29,_30) + z_x_(30,_29) + z_y_(29,_30) + z_y_(30,_29) >= 1
_C516: - x_23 + x_36 + 100000000 z_x_(36,_23) <= 99999912
_C517: x_23 - x_36 + 100000000 z_x_(23,_36) <= 99999910
_C518: - y_23 + y_36 + 100000000 z_y_(36,_23) <= 99999970
_C519: y_23 - y_36 + 100000000 z_y_(23,_36) <= 99999968
_C52: mid_for_y_6 >= 0
_C520: z_x_(23,_36) + z_x_(36,_23) + z_y_(23,_36) + z_y_(36,_23) >= 1
_C521: - x_3 + x_37 + 100000000 z_x_(37,_3) <= 99999911
_C522: x_3 - x_37 + 100000000 z_x_(3,_37) <= 99999911
_C523: - y_3 + y_37 + 100000000 z_y_(37,_3) <= 99999974
_C524: y_3 - y_37 + 100000000 z_y_(3,_37) <= 99999975
_C525: z_x_(3,_37) + z_x_(37,_3) + z_y_(3,_37) + z_y_(37,_3) >= 1
_C526: - x_21 + x_38 + 100000000 z_x_(38,_21) <= 99999900
_C527: x_21 - x_38 + 100000000 z_x_(21,_38) <= 99999909
_C528: - y_21 + y_38 + 100000000 z_y_(38,_21) <= 99999969
_C529: y_21 - y_38 + 100000000 z_y_(21,_38) <= 99999970
_C53: mid_for_y_6 - y_6 >= -376
_C530: z_x_(21,_38) + z_x_(38,_21) + z_y_(21,_38) + z_y_(38,_21) >= 1
_C531: - x_28 + x_39 + 100000000 z_x_(39,_28) <= 99999901
_C532: x_28 - x_39 + 100000000 z_x_(28,_39) <= 99999905
_C533: - y_28 + y_39 + 100000000 z_y_(39,_28) <= 99999973
_C534: y_28 - y_39 + 100000000 z_y_(28,_39) <= 99999969
_C535: z_x_(28,_39) + z_x_(39,_28) + z_y_(28,_39) + z_y_(39,_28) >= 1
_C536: - x_16 + x_40 + 100000000 z_x_(40,_16) <= 99999913
_C537: x_16 - x_40 + 100000000 z_x_(16,_40) <= 99999918
_C538: - y_16 + y_40 + 100000000 z_y_(40,_16) <= 99999966
_C539: y_16 - y_40 + 100000000 z_y_(16,_40) <= 99999974
_C54: x_6 <= 1112
_C540: z_x_(16,_40) + z_x_(40,_16) + z_y_(16,_40) + z_y_(40,_16) >= 1
_C541: - x_15 + x_42 + 100000000 z_x_(42,_15) <= 99999914
_C542: x_15 - x_42 + 100000000 z_x_(15,_42) <= 99999904
_C543: - y_15 + y_42 + 100000000 z_y_(42,_15) <= 99999975
_C544: y_15 - y_42 + 100000000 z_y_(15,_42) <= 99999968
_C545: z_x_(15,_42) + z_x_(42,_15) + z_y_(15,_42) + z_y_(42,_15) >= 1
_C546: x_44 - x_7 + 100000000 z_x_(44,_7) <= 99999901
_C547: - x_44 + x_7 + 100000000 z_x_(7,_44) <= 99999901
_C548: y_44 - y_7 + 100000000 z_y_(44,_7) <= 99999973
_C549: - y_44 + y_7 + 100000000 z_y_(7,_44) <= 99999975
_C55: y_6 >= 376
_C550: z_x_(44,_7) + z_x_(7,_44) + z_y_(44,_7) + z_y_(7,_44) >= 1
_C551: - x_20 + x_45 + 100000000 z_x_(45,_20) <= 99999911
_C552: x_20 - x_45 + 100000000 z_x_(20,_45) <= 99999912
_C553: - y_20 + y_45 + 100000000 z_y_(45,_20) <= 99999973
_C554: y_20 - y_45 + 100000000 z_y_(20,_45) <= 99999974
_C555: z_x_(20,_45) + z_x_(45,_20) + z_y_(20,_45) + z_y_(45,_20) >= 1
_C556: - x_39 + x_46 + 100000000 z_x_(46,_39) <= 99999909
_C557: x_39 - x_46 + 100000000 z_x_(39,_46) <= 99999901
_C558: - y_39 + y_46 + 100000000 z_y_(46,_39) <= 99999967
_C559: y_39 - y_46 + 100000000 z_y_(39,_46) <= 99999973
_C56: x_6 >= 0
_C560: z_x_(39,_46) + z_x_(46,_39) + z_y_(39,_46) + z_y_(46,_39) >= 1
_C561: - x_31 + x_47 + 100000000 z_x_(47,_31) <= 99999912
_C562: x_31 - x_47 + 100000000 z_x_(31,_47) <= 99999902
_C563: - y_31 + y_47 + 100000000 z_y_(47,_31) <= 99999969
_C564: y_31 - y_47 + 100000000 z_y_(31,_47) <= 99999968
_C565: z_x_(31,_47) + z_x_(47,_31) + z_y_(31,_47) + z_y_(47,_31) >= 1
_C566: x_48 - x_5 + 100000000 z_x_(48,_5) <= 99999905
_C567: - x_48 + x_5 + 100000000 z_x_(5,_48) <= 99999905
_C568: y_48 - y_5 + 100000000 z_y_(48,_5) <= 99999975
_C569: - y_48 + y_5 + 100000000 z_y_(5,_48) <= 99999975
_C57: mid_x_7 >= 0
_C570: z_x_(48,_5) + z_x_(5,_48) + z_y_(48,_5) + z_y_(5,_48) >= 1
_C571: - x_35 + x_49 + 100000000 z_x_(49,_35) <= 99999912
_C572: x_35 - x_49 + 100000000 z_x_(35,_49) <= 99999916
_C573: - y_35 + y_49 + 100000000 z_y_(49,_35) <= 99999971
_C574: y_35 - y_49 + 100000000 z_y_(35,_49) <= 99999974
_C575: z_x_(35,_49) + z_x_(49,_35) + z_y_(35,_49) + z_y_(49,_35) >= 1
_C576: - x_17 + x_50 + 100000000 z_x_(50,_17) <= 99999906
_C577: x_17 - x_50 + 100000000 z_x_(17,_50) <= 99999906
_C578: - y_17 + y_50 + 100000000 z_y_(50,_17) <= 99999968
_C579: y_17 - y_50 + 100000000 z_y_(17,_50) <= 99999975
_C58: - mid_x_7 - x_7 <= -54
_C580: z_x_(17,_50) + z_x_(50,_17) + z_y_(17,_50) + z_y_(50,_17) >= 1
_C581: - x_17 + x_51 + 100000000 z_x_(51,_17) <= 99999917
_C582: x_17 - x_51 + 100000000 z_x_(17,_51) <= 99999906
_C583: - y_17 + y_51 + 100000000 z_y_(51,_17) <= 99999972
_C584: y_17 - y_51 + 100000000 z_y_(17,_51) <= 99999975
_C585: z_x_(17,_51) + z_x_(51,_17) + z_y_(17,_51) + z_y_(51,_17) >= 1
_C586: x_53 - x_9 + 100000000 z_x_(53,_9) <= 99999901
_C587: - x_53 + x_9 + 100000000 z_x_(9,_53) <= 99999914
_C588: y_53 - y_9 + 100000000 z_y_(53,_9) <= 99999970
_C589: - y_53 + y_9 + 100000000 z_y_(9,_53) <= 99999972
_C59: mid_x_7 - x_7 >= -54
_C590: z_x_(53,_9) + z_x_(9,_53) + z_y_(53,_9) + z_y_(9,_53) >= 1
_C591: - x_3 + x_55 + 100000000 z_x_(55,_3) <= 99999911
_C592: x_3 - x_55 + 100000000 z_x_(3,_55) <= 99999911
_C593: - y_3 + y_55 + 100000000 z_y_(55,_3) <= 99999973
_C594: y_3 - y_55 + 100000000 z_y_(3,_55) <= 99999975
_C595: z_x_(3,_55) + z_x_(55,_3) + z_y_(3,_55) + z_y_(55,_3) >= 1
_C596: x_55 - x_6 + 100000000 z_x_(55,_6) <= 99999911
_C597: - x_55 + x_6 + 100000000 z_x_(6,_55) <= 99999912
_C598: y_55 - y_6 + 100000000 z_y_(55,_6) <= 99999973
_C599: - y_55 + y_6 + 100000000 z_y_(6,_55) <= 99999965
_C6: x_0 <= 1100
_C60: mid_for_y_7 >= 0
_C600: z_x_(55,_6) + z_x_(6,_55) + z_y_(55,_6) + z_y_(6,_55) >= 1
_C601: - x_1 + x_56 + 100000000 z_x_(56,_1) <= 99999905
_C602: x_1 - x_56 + 100000000 z_x_(1,_56) <= 99999906
_C603: - y_1 + y_56 + 100000000 z_y_(56,_1) <= 99999968
_C604: y_1 - y_56 + 100000000 z_y_(1,_56) <= 99999969
_C605: z_x_(1,_56) + z_x_(56,_1) + z_y_(1,_56) + z_y_(56,_1) >= 1
_C606: - x_19 + x_58 + 100000000 z_x_(58,_19) <= 99999920
_C607: x_19 - x_58 + 100000000 z_x_(19,_58) <= 99999905
_C608: - y_19 + y_58 + 100000000 z_y_(58,_19) <= 99999968
_C609: y_19 - y_58 + 100000000 z_y_(19,_58) <= 99999965
_C61: mid_for_y_7 - y_7 >= -134
_C610: z_x_(19,_58) + z_x_(58,_19) + z_y_(19,_58) + z_y_(58,_19) >= 1
_C611: - x_32 + x_58 + 100000000 z_x_(58,_32) <= 99999920
_C612: x_32 - x_58 + 100000000 z_x_(32,_58) <= 99999913
_C613: - y_32 + y_58 + 100000000 z_y_(58,_32) <= 99999968
_C614: y_32 - y_58 + 100000000 z_y_(32,_58) <= 99999967
_C615: z_x_(32,_58) + z_x_(58,_32) + z_y_(32,_58) + z_y_(58,_32) >= 1
_C616: x_13 - x_7 + 100000000 z_x_(13,_7) <= 99999900
_C617: - x_13 + x_7 + 100000000 z_x_(7,_13) <= 99999901
_C618: y_13 - y_7 + 100000000 z_y_(13,_7) <= 99999966
_C619: - y_13 + y_7 + 100000000 z_y_(7,_13) <= 99999975
_C62: x_7 <= 1101
_C620: z_x_(13,_7) + z_x_(7,_13) + z_y_(13,_7) + z_y_(7,_13) >= 1
_C621: - x_18 + x_19 + 100000000 z_x_(19,_18) <= 99999905
_C622: x_18 - x_19 + 100000000 z_x_(18,_19) <= 99999912
_C623: - y_18 + y_19 + 100000000 z_y_(19,_18) <= 99999965
_C624: y_18 - y_19 + 100000000 z_y_(18,_19) <= 99999968
_C625: z_x_(18,_19) + z_x_(19,_18) + z_y_(18,_19) + z_y_(19,_18) >= 1
_C626: - x_10 + x_23 + 100000000 z_x_(23,_10) <= 99999910
_C627: x_10 - x_23 + 100000000 z_x_(10,_23) <= 99999902
_C628: - y_10 + y_23 + 100000000 z_y_(23,_10) <= 99999968
_C629: y_10 - y_23 + 100000000 z_y_(10,_23) <= 99999966
_C63: y_7 >= 134
_C630: z_x_(10,_23) + z_x_(23,_10) + z_y_(10,_23) + z_y_(23,_10) >= 1
_C631: - x_23 + x_45 + 100000000 z_x_(45,_23) <= 99999911
_C632: x_23 - x_45 + 100000000 z_x_(23,_45) <= 99999910
_C633: - y_23 + y_45 + 100000000 z_y_(45,_23) <= 99999973
_C634: y_23 - y_45 + 100000000 z_y_(23,_45) <= 99999968
_C635: z_x_(23,_45) + z_x_(45,_23) + z_y_(23,_45) + z_y_(45,_23) >= 1
_C636: x_46 - x_8 + 100000000 z_x_(46,_8) <= 99999909
_C637: - x_46 + x_8 + 100000000 z_x_(8,_46) <= 99999905
_C638: y_46 - y_8 + 100000000 z_y_(46,_8) <= 99999967
_C639: - y_46 + y_8 + 100000000 z_y_(8,_46) <= 99999972
_C64: x_7 >= 0
_C640: z_x_(46,_8) + z_x_(8,_46) + z_y_(46,_8) + z_y_(8,_46) >= 1
_C641: - x_54 + x_58 + 100000000 z_x_(58,_54) <= 99999920
_C642: x_54 - x_58 + 100000000 z_x_(54,_58) <= 99999919
_C643: - y_54 + y_58 + 100000000 z_y_(58,_54) <= 99999968
_C644: y_54 - y_58 + 100000000 z_y_(54,_58) <= 99999969
_C645: z_x_(54,_58) + z_x_(58,_54) + z_y_(54,_58) + z_y_(58,_54) >= 1
_C646: - x_10 + x_36 + 100000000 z_x_(36,_10) <= 99999912
_C647: x_10 - x_36 + 100000000 z_x_(10,_36) <= 99999902
_C648: - y_10 + y_36 + 100000000 z_y_(36,_10) <= 99999970
_C649: y_10 - y_36 + 100000000 z_y_(10,_36) <= 99999966
_C65: mid_x_8 >= 0
_C650: z_x_(10,_36) + z_x_(36,_10) + z_y_(10,_36) + z_y_(36,_10) >= 1
_C651: - x_10 + x_11 + 100000000 z_x_(11,_10) <= 99999920
_C652: x_10 - x_11 + 100000000 z_x_(10,_11) <= 99999902
_C653: - y_10 + y_11 + 100000000 z_y_(11,_10) <= 99999966
_C654: y_10 - y_11 + 100000000 z_y_(10,_11) <= 99999966
_C655: z_x_(10,_11) + z_x_(11,_10) + z_y_(10,_11) + z_y_(11,_10) >= 1
_C66: - mid_x_8 - x_8 <= -500
_C67: mid_x_8 - x_8 >= -500
_C68: mid_for_y_8 >= 0
_C69: mid_for_y_8 - y_8 >= -283
_C7: y_0 >= 425
_C70: x_8 <= 1105
_C71: y_8 >= 283
_C72: x_8 >= 0
_C73: mid_x_9 >= 0
_C74: - mid_x_9 - x_9 <= -115
_C75: mid_x_9 - x_9 >= -115
_C76: mid_for_y_9 >= 0
_C77: mid_for_y_9 - y_9 >= -314
_C78: x_9 <= 1114
_C79: y_9 >= 314
_C8: x_0 >= 0
_C80: x_9 >= 0
_C81: mid_x_10 >= 0
_C82: - mid_x_10 - x_10 <= -868
_C83: mid_x_10 - x_10 >= -868
_C84: mid_for_y_10 >= 0
_C85: mid_for_y_10 - y_10 >= -200
_C86: x_10 <= 1102
_C87: y_10 >= 200
_C88: x_10 >= 0
_C89: mid_x_11 >= 0
_C9: mid_x_1 >= 0
_C90: - mid_x_11 - x_11 <= -892
_C91: mid_x_11 - x_11 >= -892
_C92: mid_for_y_11 >= 0
_C93: mid_for_y_11 - y_11 >= -244
_C94: x_11 <= 1120
_C95: y_11 >= 244
_C96: x_11 >= 0
_C97: mid_x_12 >= 0
_C98: - mid_x_12 - x_12 <= -672
_C99: mid_x_12 - x_12 >= -672
Binaries
z_x_(1,_25)
z_x_(1,_56)
z_x_(10,_11)
z_x_(10,_23)
z_x_(10,_36)
z_x_(11,_10)
z_x_(12,_15)
z_x_(13,_4)
z_x_(13,_7)
z_x_(15,_12)
z_x_(15,_42)
z_x_(16,_40)
z_x_(17,_50)
z_x_(17,_51)
z_x_(18,_19)
z_x_(18,_24)
z_x_(19,_18)
z_x_(19,_58)
z_x_(20,_45)
z_x_(21,_38)
z_x_(22,_26)
z_x_(23,_10)
z_x_(23,_36)
z_x_(23,_45)
z_x_(24,_18)
z_x_(25,_1)
z_x_(26,_22)
z_x_(28,_39)
z_x_(29,_30)
z_x_(3,_37)
z_x_(3,_55)
z_x_(3,_6)
z_x_(30,_29)
z_x_(31,_47)
z_x_(32,_58)
z_x_(35,_49)
z_x_(36,_10)
z_x_(36,_23)
z_x_(37,_3)
z_x_(38,_21)
z_x_(39,_28)
z_x_(39,_46)
z_x_(4,_13)
z_x_(40,_16)
z_x_(42,_15)
z_x_(44,_7)
z_x_(45,_20)
z_x_(45,_23)
z_x_(46,_39)
z_x_(46,_8)
z_x_(47,_31)
z_x_(48,_5)
z_x_(49,_35)
z_x_(5,_48)
z_x_(50,_17)
z_x_(51,_17)
z_x_(53,_9)
z_x_(54,_58)
z_x_(55,_3)
z_x_(55,_6)
z_x_(56,_1)
z_x_(58,_19)
z_x_(58,_32)
z_x_(58,_54)
z_x_(6,_3)
z_x_(6,_55)
z_x_(7,_13)
z_x_(7,_44)
z_x_(8,_46)
z_x_(9,_53)
z_y_(1,_25)
z_y_(1,_56)
z_y_(10,_11)
z_y_(10,_23)
z_y_(10,_36)
z_y_(11,_10)
z_y_(12,_15)
z_y_(13,_4)
z_y_(13,_7)
z_y_(15,_12)
z_y_(15,_42)
z_y_(16,_40)
z_y_(17,_50)
z_y_(17,_51)
z_y_(18,_19)
z_y_(18,_24)
z_y_(19,_18)
z_y_(19,_58)
z_y_(20,_45)
z_y_(21,_38)
z_y_(22,_26)
z_y_(23,_10)
z_y_(23,_36)
z_y_(23,_45)
z_y_(24,_18)
z_y_(25,_1)
z_y_(26,_22)
z_y_(28,_39)
z_y_(29,_30)
z_y_(3,_37)
z_y_(3,_55)
z_y_(3,_6)
z_y_(30,_29)
z_y_(31,_47)
z_y_(32,_58)
z_y_(35,_49)
z_y_(36,_10)
z_y_(36,_23)
z_y_(37,_3)
z_y_(38,_21)
z_y_(39,_28)
z_y_(39,_46)
z_y_(4,_13)
z_y_(40,_16)
z_y_(42,_15)
z_y_(44,_7)
z_y_(45,_20)
z_y_(45,_23)
z_y_(46,_39)
z_y_(46,_8)
z_y_(47,_31)
z_y_(48,_5)
z_y_(49,_35)
z_y_(5,_48)
z_y_(50,_17)
z_y_(51,_17)
z_y_(53,_9)
z_y_(54,_58)
z_y_(55,_3)
z_y_(55,_6)
z_y_(56,_1)
z_y_(58,_19)
z_y_(58,_32)
z_y_(58,_54)
z_y_(6,_3)
z_y_(6,_55)
z_y_(7,_13)
z_y_(7,_44)
z_y_(8,_46)
z_y_(9,_53)
End
